33D32945 STP File, STP Format Version 1.0

SECTION Comments
Name "cube_n10_d2_s7"
Problem "Euclidean Steiner Tree Problem"
Remark "Generated with STPGenerator. 2 dimensions."
END

SECTION Graph
Nodes 10
END

SECTION Coordinates
DD 0 0.4869041394 0.8679774124
DD 1 0.5925911942 0.2147098403
DD 2 0.0102265389 0.5148185620
DD 3 0.9959482527 0.0319323023
DD 4 0.6015652793 0.0553448466
DD 5 0.5267799439 0.0893740547
DD 6 0.7644367087 0.8154919030
DD 7 0.8889724807 0.1638986730
DD 8 0.2155044015 0.7876827134
DD 9 0.7886977730 0.0666457862
END
